50 10969

339
464
389
217
60
456
406
439
289
305
447
469
500
482
384
424
442
311
163
166
41
73
218
169
293
334
35
224
277
331
353
496
89
113
51
293
17
278
350
177
176
189
77
301
288
471
57
209
301
279
